(set-info :smt-lib-version 2.6)
(set-logic SLHV)
(declare-hvar emp IntHeap)
(declare-locvar nil IntLoc)
(declare-datatype pt_record_0 ((Pt_R_0 (loc IntLoc))))
(declare-datatype pt_record_1 ((Pt_R_1 (data Int))))(set-info :source |
Benchmarks from Leonardo de Moura <demoura@csl.sri.com>

This benchmark was automatically translated into SMT-LIB format from
CVC format using CVC Lite
|)
(set-info :category "industrial")
(set-info :status unsat)
(declare-fun x_0 () Int)
(declare-fun x_1 () Int)
(declare-fun x_2 () (Array Int Int))
(declare-fun x_3 () Int)
(declare-fun x_4 () Int)
(declare-fun x_5 () Bool)
(declare-fun x_6 () (Array Int Int))
(declare-fun x_7 () Int)
(declare-fun x_8 () (Array Int Int))
(declare-fun x_9 () Int)
(declare-fun x_10 () Bool)
(declare-fun x_11 () Int)
(declare-fun x_12 () Int)
(declare-fun x_13 () Int)
(declare-fun x_14 () Int)
(declare-fun x_15 () (Array Int Int))
(declare-fun x_16 () Int)
(declare-fun x_17 () Int)
(declare-fun x_18 () Int)
(declare-fun x_19 () Int)
(declare-fun x_20 () Int)
(declare-fun x_21 () (Array Int Int))
(declare-fun x_22 () Int)
(declare-fun x_23 () Bool)
(declare-fun x_24 () Int)
(declare-fun x_25 () Int)
(declare-fun x_26 () Int)
(declare-fun x_27 () Int)
(declare-fun x_28 () (Array Int Int))
(declare-fun x_29 () Int)
(declare-fun x_30 () Int)
(declare-fun x_31 () Int)
(declare-fun x_32 () Int)
(declare-fun x_33 () Int)
(declare-fun x_34 () (Array Int Int))
(declare-fun x_35 () Int)
(declare-fun x_36 () Bool)
(declare-fun x_37 () Int)
(declare-fun x_38 () Int)
(declare-fun x_39 () Int)
(declare-fun x_40 () Int)
(declare-fun x_41 () (Array Int Int))
(declare-fun x_42 () Int)
(declare-fun x_43 () Int)
(declare-fun x_44 () Int)
(declare-fun x_45 () Int)
(declare-fun x_46 () Int)
(declare-fun x_47 () (Array Int Int))
(declare-fun x_48 () Int)
(declare-fun x_49 () Bool)
(declare-fun x_50 () Int)
(declare-fun x_51 () Int)
(declare-fun x_52 () Int)
(declare-fun x_53 () Int)
(declare-fun x_54 () (Array Int Int))
(declare-fun x_55 () Int)
(declare-fun x_56 () Int)
(declare-fun x_57 () Int)
(declare-fun x_58 () Int)
(declare-fun x_59 () Int)
(declare-fun x_60 () (Array Int Int))
(declare-fun x_61 () Int)
(declare-fun x_62 () Bool)
(declare-fun x_63 () Int)
(declare-fun x_64 () Int)
(declare-fun x_65 () Int)
(declare-fun x_66 () Int)
(declare-fun x_67 () (Array Int Int))
(declare-fun x_68 () Int)
(declare-fun x_69 () Int)
(declare-fun x_70 () Int)
(declare-fun x_71 () Int)
(declare-fun x_72 () Int)
(declare-fun x_73 () (Array Int Int))
(declare-fun x_74 () Int)
(declare-fun x_75 () Bool)
(declare-fun x_76 () Int)
(declare-fun x_77 () Int)
(declare-fun x_78 () Int)
(declare-fun x_79 () Int)
(declare-fun x_80 () (Array Int Int))
(declare-fun x_81 () Int)
(declare-fun x_82 () Int)
(declare-fun x_83 () Int)
(declare-fun x_84 () Int)
(declare-fun x_85 () Int)
(declare-fun x_86 () (Array Int Int))
(declare-fun x_87 () Int)
(declare-fun x_88 () Bool)
(declare-fun x_89 () Int)
(declare-fun x_90 () Int)
(declare-fun x_91 () Int)
(declare-fun x_92 () Int)
(declare-fun x_93 () (Array Int Int))
(declare-fun x_94 () Int)
(declare-fun x_95 () Int)
(declare-fun x_96 () Int)
(declare-fun x_97 () Int)
(declare-fun x_98 () Int)
(declare-fun x_99 () (Array Int Int))
(declare-fun x_100 () Int)
(declare-fun x_101 () Bool)
(declare-fun x_102 () Int)
(declare-fun x_103 () Int)
(declare-fun x_104 () Int)
(declare-fun x_105 () Int)
(declare-fun x_106 () (Array Int Int))
(declare-fun x_107 () Int)
(declare-fun x_108 () Int)
(declare-fun x_109 () Int)
(declare-fun x_110 () Int)
(declare-fun x_111 () Int)
(declare-fun x_112 () (Array Int Int))
(declare-fun x_113 () Int)
(declare-fun x_114 () Bool)
(declare-fun x_115 () Int)
(declare-fun x_116 () Int)
(declare-fun x_117 () Int)
(declare-fun x_118 () Int)
(declare-fun x_119 () (Array Int Int))
(declare-fun x_120 () Int)
(declare-fun x_121 () Int)
(declare-fun x_122 () Int)
(declare-fun x_123 () Int)
(declare-fun x_124 () Int)
(declare-fun x_125 () (Array Int Int))
(declare-fun x_126 () Int)
(declare-fun x_127 () Bool)
(declare-fun x_128 () Int)
(declare-fun x_129 () Int)
(declare-fun x_130 () Int)
(declare-fun x_131 () Int)
(declare-fun x_132 () (Array Int Int))
(declare-fun x_133 () Int)
(declare-fun x_134 () Int)
(declare-fun x_135 () Int)
(declare-fun x_136 () Int)
(declare-fun x_137 () Int)
(declare-fun x_138 () Int)
(declare-fun x_139 () Int)
(declare-fun x_140 () Int)
(declare-fun x_141 () Int)
(declare-fun x_142 () Int)
(declare-fun x_143 () Int)
(declare-fun x_144 () Int)
(declare-fun x_145 () Int)
(declare-fun x_146 () Int)
(declare-fun x_147 () Int)
(declare-fun x_148 () Int)
(declare-fun x_149 () Int)
(declare-fun x_150 () Int)
(declare-fun x_151 () Int)
(declare-fun x_152 () Int)
(declare-fun x_153 () Int)
(declare-fun x_154 () Int)
(declare-fun x_155 () Int)
(declare-fun x_156 () Int)
(declare-fun x_157 () Int)
(declare-fun x_158 () Int)
(declare-fun x_159 () Int)
(declare-fun x_160 () Int)
(declare-fun x_161 () Int)
(declare-fun x_162 () Int)
(declare-fun x_163 () Int)
(declare-fun x_164 () Int)
(declare-fun x_165 () Int)
(declare-fun x_166 () Int)
(declare-fun x_167 () Int)
(declare-fun x_168 () Int)
(declare-fun x_169 () Int)
(declare-fun x_170 () Int)
(declare-fun x_171 () Int)
(declare-fun x_172 () Int)
(declare-fun x_173 () Int)
(declare-fun x_174 () Int)
(declare-fun x_175 () Int)
(declare-fun x_176 () Int)
(declare-fun x_177 () Int)
(declare-fun x_178 () Int)
(declare-fun x_179 () Int)
(declare-fun x_180 () Int)
(declare-fun x_181 () Int)
(declare-fun x_182 () Int)
(declare-fun x_183 () Int)
(declare-fun x_184 () Int)
(declare-fun x_185 () Int)
(declare-fun x_186 () Int)
(declare-fun x_187 () Int)
(declare-fun x_188 () Int)
(declare-fun x_189 () Int)
(declare-fun x_190 () Int)
(declare-fun x_191 () Int)
(declare-fun x_192 () Int)
(declare-fun x_193 () Int)
(declare-fun x_194 () Int)
(declare-fun x_195 () Int)
(declare-fun x_196 () Int)
(declare-fun x_197 () Int)
(declare-fun x_198 () Int)
(declare-fun x_199 () Int)
(declare-fun x_200 () Int)
(assert (let ((?v_48 (= x_8 x_6)) (?v_45 (= x_9 x_0)) (?v_46 (= x_10 x_5)) (?v_49 (= x_11 x_1)) (?v_47 (not (<= x_1 x_0))) (?v_43 (= x_21 x_8)) (?v_40 (= x_22 x_9)) (?v_41 (= x_23 x_10)) (?v_44 (= x_24 x_11)) (?v_42 (not (<= x_11 x_9))) (?v_38 (= x_34 x_21)) (?v_35 (= x_35 x_22)) (?v_36 (= x_36 x_23)) (?v_39 (= x_37 x_24)) (?v_37 (not (<= x_24 x_22))) (?v_33 (= x_47 x_34)) (?v_30 (= x_48 x_35)) (?v_31 (= x_49 x_36)) (?v_34 (= x_50 x_37)) (?v_32 (not (<= x_37 x_35))) (?v_28 (= x_60 x_47)) (?v_25 (= x_61 x_48)) (?v_26 (= x_62 x_49)) (?v_29 (= x_63 x_50)) (?v_27 (not (<= x_50 x_48))) (?v_23 (= x_73 x_60)) (?v_20 (= x_74 x_61)) (?v_21 (= x_75 x_62)) (?v_24 (= x_76 x_63)) (?v_22 (not (<= x_63 x_61))) (?v_18 (= x_86 x_73)) (?v_15 (= x_87 x_74)) (?v_16 (= x_88 x_75)) (?v_19 (= x_89 x_76)) (?v_17 (not (<= x_76 x_74))) (?v_13 (= x_99 x_86)) (?v_10 (= x_100 x_87)) (?v_11 (= x_101 x_88)) (?v_14 (= x_102 x_89)) (?v_12 (not (<= x_89 x_87))) (?v_8 (= x_112 x_99)) (?v_5 (= x_113 x_100)) (?v_6 (= x_114 x_101)) (?v_9 (= x_115 x_102)) (?v_7 (not (<= x_102 x_100))) (?v_3 (= x_125 x_112)) (?v_0 (= x_126 x_113)) (?v_1 (= x_127 x_114)) (?v_4 (= x_128 x_115)) (?v_2 (not (<= x_115 x_113))) (?v_50 (select x_2 x_3)) (?v_51 (select x_2 x_4))) (and (and (and (and (and (and (and (and (and (and (and (and (and (and (and (and (and (and (and (and (and (and (and (and (and (and (and (and (and (and (and (and (and (and (and (and (and (and (and (and (and (and (and (and (and (and (and (and (and (and (and (and (and (and (and (and (and (and (and (and (and (and (and (and (and (and (and (and (and (and (and (and (and (and (and (and (and (and (and (and (and (and (and (and (and (and (and (and (and (and (not (= x_4 x_3)) (= x_0 0)) (= x_1 0)) (= x_137 ?v_50)) (= x_137 1)) (= x_138 ?v_51)) (= x_138 1)) x_5) (= x_139 (select x_6 x_0))) (= x_7 x_139)) (= x_140 (select x_8 x_9))) (= x_20 x_140)) (= x_141 (select x_21 x_22))) (= x_33 x_141)) (= x_142 (select x_34 x_35))) (= x_46 x_142)) (= x_143 (select x_47 x_48))) (= x_59 x_143)) (= x_144 (select x_60 x_61))) (= x_72 x_144)) (= x_145 (select x_73 x_74))) (= x_85 x_145)) (= x_146 (select x_86 x_87))) (= x_98 x_146)) (= x_147 (select x_99 x_100))) (= x_111 x_147)) (= x_148 (select x_112 x_113))) (= x_124 x_148)) (= x_149 (select x_119 x_130))) (= x_150 (select x_119 x_133))) (= x_151 (select x_119 x_135))) (or (or (or (and (and (and (and (and (and (and (= x_129 0) (= x_128 (+ x_115 1))) ?v_0) ?v_1) (= x_131 x_130)) (= x_149 1)) (= x_132 (store x_119 x_130 2))) (= x_125 (store x_112 x_115 x_130))) (and (and (and (and (and (and (and (and (and (= x_129 1) ?v_2) ?v_0) ?v_1) ?v_3) ?v_4) (= x_134 x_133)) (= x_150 2)) (= x_124 x_133)) (= x_132 (store x_119 x_133 3)))) (and (and (and (and (and (and (and (and (and (= x_129 2) ?v_2) (= x_126 (+ x_113 1))) ?v_1) ?v_3) ?v_4) (= x_136 x_135)) (= x_151 3)) (= x_124 x_135)) (= x_132 (store x_119 x_135 1)))) (and (and (and (and (and (= x_129 3) ?v_3) ?v_0) ?v_1) (= x_132 x_119)) ?v_4))) (= x_152 (select x_106 x_117))) (= x_153 (select x_106 x_120))) (= x_154 (select x_106 x_122))) (or (or (or (and (and (and (and (and (and (and (= x_116 0) (= x_115 (+ x_102 1))) ?v_5) ?v_6) (= x_118 x_117)) (= x_152 1)) (= x_119 (store x_106 x_117 2))) (= x_112 (store x_99 x_102 x_117))) (and (and (and (and (and (and (and (and (and (= x_116 1) ?v_7) ?v_5) ?v_6) ?v_8) ?v_9) (= x_121 x_120)) (= x_153 2)) (= x_111 x_120)) (= x_119 (store x_106 x_120 3)))) (and (and (and (and (and (and (and (and (and (= x_116 2) ?v_7) (= x_113 (+ x_100 1))) ?v_6) ?v_8) ?v_9) (= x_123 x_122)) (= x_154 3)) (= x_111 x_122)) (= x_119 (store x_106 x_122 1)))) (and (and (and (and (and (= x_116 3) ?v_8) ?v_5) ?v_6) (= x_119 x_106)) ?v_9))) (= x_155 (select x_93 x_104))) (= x_156 (select x_93 x_107))) (= x_157 (select x_93 x_109))) (or (or (or (and (and (and (and (and (and (and (= x_103 0) (= x_102 (+ x_89 1))) ?v_10) ?v_11) (= x_105 x_104)) (= x_155 1)) (= x_106 (store x_93 x_104 2))) (= x_99 (store x_86 x_89 x_104))) (and (and (and (and (and (and (and (and (and (= x_103 1) ?v_12) ?v_10) ?v_11) ?v_13) ?v_14) (= x_108 x_107)) (= x_156 2)) (= x_98 x_107)) (= x_106 (store x_93 x_107 3)))) (and (and (and (and (and (and (and (and (and (= x_103 2) ?v_12) (= x_100 (+ x_87 1))) ?v_11) ?v_13) ?v_14) (= x_110 x_109)) (= x_157 3)) (= x_98 x_109)) (= x_106 (store x_93 x_109 1)))) (and (and (and (and (and (= x_103 3) ?v_13) ?v_10) ?v_11) (= x_106 x_93)) ?v_14))) (= x_158 (select x_80 x_91))) (= x_159 (select x_80 x_94))) (= x_160 (select x_80 x_96))) (or (or (or (and (and (and (and (and (and (and (= x_90 0) (= x_89 (+ x_76 1))) ?v_15) ?v_16) (= x_92 x_91)) (= x_158 1)) (= x_93 (store x_80 x_91 2))) (= x_86 (store x_73 x_76 x_91))) (and (and (and (and (and (and (and (and (and (= x_90 1) ?v_17) ?v_15) ?v_16) ?v_18) ?v_19) (= x_95 x_94)) (= x_159 2)) (= x_85 x_94)) (= x_93 (store x_80 x_94 3)))) (and (and (and (and (and (and (and (and (and (= x_90 2) ?v_17) (= x_87 (+ x_74 1))) ?v_16) ?v_18) ?v_19) (= x_97 x_96)) (= x_160 3)) (= x_85 x_96)) (= x_93 (store x_80 x_96 1)))) (and (and (and (and (and (= x_90 3) ?v_18) ?v_15) ?v_16) (= x_93 x_80)) ?v_19))) (= x_161 (select x_67 x_78))) (= x_162 (select x_67 x_81))) (= x_163 (select x_67 x_83))) (or (or (or (and (and (and (and (and (and (and (= x_77 0) (= x_76 (+ x_63 1))) ?v_20) ?v_21) (= x_79 x_78)) (= x_161 1)) (= x_80 (store x_67 x_78 2))) (= x_73 (store x_60 x_63 x_78))) (and (and (and (and (and (and (and (and (and (= x_77 1) ?v_22) ?v_20) ?v_21) ?v_23) ?v_24) (= x_82 x_81)) (= x_162 2)) (= x_72 x_81)) (= x_80 (store x_67 x_81 3)))) (and (and (and (and (and (and (and (and (and (= x_77 2) ?v_22) (= x_74 (+ x_61 1))) ?v_21) ?v_23) ?v_24) (= x_84 x_83)) (= x_163 3)) (= x_72 x_83)) (= x_80 (store x_67 x_83 1)))) (and (and (and (and (and (= x_77 3) ?v_23) ?v_20) ?v_21) (= x_80 x_67)) ?v_24))) (= x_164 (select x_54 x_65))) (= x_165 (select x_54 x_68))) (= x_166 (select x_54 x_70))) (or (or (or (and (and (and (and (and (and (and (= x_64 0) (= x_63 (+ x_50 1))) ?v_25) ?v_26) (= x_66 x_65)) (= x_164 1)) (= x_67 (store x_54 x_65 2))) (= x_60 (store x_47 x_50 x_65))) (and (and (and (and (and (and (and (and (and (= x_64 1) ?v_27) ?v_25) ?v_26) ?v_28) ?v_29) (= x_69 x_68)) (= x_165 2)) (= x_59 x_68)) (= x_67 (store x_54 x_68 3)))) (and (and (and (and (and (and (and (and (and (= x_64 2) ?v_27) (= x_61 (+ x_48 1))) ?v_26) ?v_28) ?v_29) (= x_71 x_70)) (= x_166 3)) (= x_59 x_70)) (= x_67 (store x_54 x_70 1)))) (and (and (and (and (and (= x_64 3) ?v_28) ?v_25) ?v_26) (= x_67 x_54)) ?v_29))) (= x_167 (select x_41 x_52))) (= x_168 (select x_41 x_55))) (= x_169 (select x_41 x_57))) (or (or (or (and (and (and (and (and (and (and (= x_51 0) (= x_50 (+ x_37 1))) ?v_30) ?v_31) (= x_53 x_52)) (= x_167 1)) (= x_54 (store x_41 x_52 2))) (= x_47 (store x_34 x_37 x_52))) (and (and (and (and (and (and (and (and (and (= x_51 1) ?v_32) ?v_30) ?v_31) ?v_33) ?v_34) (= x_56 x_55)) (= x_168 2)) (= x_46 x_55)) (= x_54 (store x_41 x_55 3)))) (and (and (and (and (and (and (and (and (and (= x_51 2) ?v_32) (= x_48 (+ x_35 1))) ?v_31) ?v_33) ?v_34) (= x_58 x_57)) (= x_169 3)) (= x_46 x_57)) (= x_54 (store x_41 x_57 1)))) (and (and (and (and (and (= x_51 3) ?v_33) ?v_30) ?v_31) (= x_54 x_41)) ?v_34))) (= x_170 (select x_28 x_39))) (= x_171 (select x_28 x_42))) (= x_172 (select x_28 x_44))) (or (or (or (and (and (and (and (and (and (and (= x_38 0) (= x_37 (+ x_24 1))) ?v_35) ?v_36) (= x_40 x_39)) (= x_170 1)) (= x_41 (store x_28 x_39 2))) (= x_34 (store x_21 x_24 x_39))) (and (and (and (and (and (and (and (and (and (= x_38 1) ?v_37) ?v_35) ?v_36) ?v_38) ?v_39) (= x_43 x_42)) (= x_171 2)) (= x_33 x_42)) (= x_41 (store x_28 x_42 3)))) (and (and (and (and (and (and (and (and (and (= x_38 2) ?v_37) (= x_35 (+ x_22 1))) ?v_36) ?v_38) ?v_39) (= x_45 x_44)) (= x_172 3)) (= x_33 x_44)) (= x_41 (store x_28 x_44 1)))) (and (and (and (and (and (= x_38 3) ?v_38) ?v_35) ?v_36) (= x_41 x_28)) ?v_39))) (= x_173 (select x_15 x_26))) (= x_174 (select x_15 x_29))) (= x_175 (select x_15 x_31))) (or (or (or (and (and (and (and (and (and (and (= x_25 0) (= x_24 (+ x_11 1))) ?v_40) ?v_41) (= x_27 x_26)) (= x_173 1)) (= x_28 (store x_15 x_26 2))) (= x_21 (store x_8 x_11 x_26))) (and (and (and (and (and (and (and (and (and (= x_25 1) ?v_42) ?v_40) ?v_41) ?v_43) ?v_44) (= x_30 x_29)) (= x_174 2)) (= x_20 x_29)) (= x_28 (store x_15 x_29 3)))) (and (and (and (and (and (and (and (and (and (= x_25 2) ?v_42) (= x_22 (+ x_9 1))) ?v_41) ?v_43) ?v_44) (= x_32 x_31)) (= x_175 3)) (= x_20 x_31)) (= x_28 (store x_15 x_31 1)))) (and (and (and (and (and (= x_25 3) ?v_43) ?v_40) ?v_41) (= x_28 x_15)) ?v_44))) (= x_176 (select x_2 x_13))) (= x_177 (select x_2 x_16))) (= x_178 (select x_2 x_18))) (or (or (or (and (and (and (and (and (and (and (= x_12 0) (= x_11 (+ x_1 1))) ?v_45) ?v_46) (= x_14 x_13)) (= x_176 1)) (= x_15 (store x_2 x_13 2))) (= x_8 (store x_6 x_1 x_13))) (and (and (and (and (and (and (and (and (and (= x_12 1) ?v_47) ?v_45) ?v_46) ?v_48) ?v_49) (= x_17 x_16)) (= x_177 2)) (= x_7 x_16)) (= x_15 (store x_2 x_16 3)))) (and (and (and (and (and (and (and (and (and (= x_12 2) ?v_47) (= x_9 (+ x_0 1))) ?v_46) ?v_48) ?v_49) (= x_19 x_18)) (= x_178 3)) (= x_7 x_18)) (= x_15 (store x_2 x_18 1)))) (and (and (and (and (and (= x_12 3) ?v_48) ?v_45) ?v_46) (= x_15 x_2)) ?v_49))) (= x_179 (select x_132 x_3))) (= x_180 (select x_132 x_4))) (= x_181 (select x_119 x_3))) (= x_182 (select x_119 x_4))) (= x_183 (select x_106 x_3))) (= x_184 (select x_106 x_4))) (= x_185 (select x_93 x_3))) (= x_186 (select x_93 x_4))) (= x_187 (select x_80 x_3))) (= x_188 (select x_80 x_4))) (= x_189 (select x_67 x_3))) (= x_190 (select x_67 x_4))) (= x_191 (select x_54 x_3))) (= x_192 (select x_54 x_4))) (= x_193 (select x_41 x_3))) (= x_194 (select x_41 x_4))) (= x_195 (select x_28 x_3))) (= x_196 (select x_28 x_4))) (= x_197 (select x_15 x_3))) (= x_198 (select x_15 x_4))) (= x_199 ?v_50)) (= x_200 ?v_51)) (or (or (or (or (or (or (or (or (or (or (and (= x_179 3) (= x_180 3)) (and (= x_181 3) (= x_182 3))) (and (= x_183 3) (= x_184 3))) (and (= x_185 3) (= x_186 3))) (and (= x_187 3) (= x_188 3))) (and (= x_189 3) (= x_190 3))) (and (= x_191 3) (= x_192 3))) (and (= x_193 3) (= x_194 3))) (and (= x_195 3) (= x_196 3))) (and (= x_197 3) (= x_198 3))) (and (= x_199 3) (= x_200 3))))))
(check-sat)
(exit)
